# MIN/wB97XD/Def2SVP

0 1
Cr        -0.001088187164         -0.003090094303         -2.250911117548
C          1.885473484361          0.106102549075         -2.330665093744
C         -0.028919567941          1.883895165176         -2.280891306722
C         -1.890277154617          0.050905349764         -2.324794059863
C          0.026113932685         -1.898348148434         -2.205615672426
C         -0.003195323130         -0.053312175381         -4.107873812258
O          3.020447661854          0.213037076037         -2.439876715597
O         -0.045989437729          3.027963126974         -2.323509717510
O         -3.028219394190          0.124473567551         -2.430617857100
O          0.042411790933         -3.043103648140         -2.192844748554
O         -0.004222868614         -0.096760507246         -5.254285632825
P          0.005220367158         -0.074612773525          0.208911886697
Cl         1.345859941469         -0.833505977710          0.902998694036
Cl        -0.011764231891          1.459456991874          0.917391926376
Cl        -1.313091193177         -0.865948021720          0.909476187037
Options
GauProc=16
GauMem=800
EigenCheck
MinFreqValue=50.0
@@SubAddExPot@@
MaxOptItr=999


