# MIN/wB97XD/Def2SVP

0 1
Ag         0.000488124613          0.000230350328         -2.457855006488
Cl         0.000045378018          0.001148696668         -4.755026963232
P         -0.000145111861         -0.000730396601         -0.065593140292
Cl         1.354442888809         -0.730373634229          0.631530272106
Cl        -0.046394424541          1.537161939497          0.631557929927
Cl        -1.309701655042         -0.809762975665          0.629903317981
Options
GauProc=16
GauMem=800
EigenCheck
MinFreqValue=50.0
@@SubAddExPot@@
MaxOptItr=999


