# MIN/wB97XD/Def2SVP

-1 1
Pd         0.000008919944          0.000194369381         -2.319217247275
Cl        -2.151301906905          0.905927499413         -2.439248682052
Cl         0.149102400226         -0.063624526424         -4.652375508508
Cl         2.173045771349         -0.909668279664         -2.091049927743
P         -0.028801836088          0.010180850340         -0.025485989206
Cl         1.222277552244          0.930557186070          0.639724861581
Cl        -1.417782451159          0.589537413157          0.741154994990
Cl         0.195704670380         -1.527609372269          0.637547888205
Options
GauProc=16
GauMem=800
EigenCheck
MinFreqValue=50.0
@@SubAddExPot@@
MaxOptItr=999


