# SADDLE/wB97XD/Def2SVP

-1 1
Pd        -0.855837681985         -0.421831008033          0.077761249609
O         -0.093620142408         -2.325756188837          0.045201371653
C         -0.403468665821         -2.969280857529         -1.105750517055
O          0.201392564691         -3.995622815240         -1.397990562419
O         -1.336624494653         -2.409543891684         -1.813848945075
C         -1.591365823479          1.453013702981          0.037686428998
C         -2.417855333740          1.833324890144         -1.041187150439
C         -1.349438993240          2.421279275376          1.027378958941
C         -2.917475738999          3.137574399458         -1.135504213542
C         -1.853505147621          3.719113455020          0.936681348472
H         -0.744551215491          2.155515746760          1.900787594314
C         -2.627966182829          4.090635566585         -0.161481591616
H         -3.558427574287          3.404289572144         -1.982488140464
H         -1.639388413403          4.444368041838          1.727817641523
H         -3.019073767002          5.107867663472         -0.248810656873
C         -2.989572646376         -1.307378808966          0.000320598771
C         -3.072285423102         -2.046251850887          1.194802261780
C         -4.086894142981         -0.493285161718         -0.346245260046
C         -4.183812974783         -1.973774734996          2.031408697381
H         -2.226462853773         -2.696667742089          1.436594979133
C         -5.214585878181         -0.424097097808          0.480500246522
C         -5.256755155909         -1.160335643343          1.660583268539
H         -4.220824490041         -2.550710319912          2.958564610179
H         -6.041117868420          0.223214812085          0.180627243186
H         -6.139635453450         -1.091465667606          2.302990618994
H         -2.235619571586         -1.742593105086         -0.869886208814
O         -4.142910287143          0.232831685170         -1.486013453558
C         -2.932654242506          0.786144632171         -2.005465987551
H         -2.196716777647         -0.008537135834         -2.206167906547
H         -3.225639097323          1.237689207224         -2.963587865418
Cl         1.996826906975         -0.381298793853         -1.492136837065
Cl         1.830251248500          1.716090427210          0.141958243581
Cl         2.252133965793         -0.719830224989          1.137341499425
P          1.337447112221          0.107383970772         -0.016328794518
Options
@@SubAddExPot@@
GauProc=32
GauMem=1600
MinFreqValue=50.0
EigenCheck

