# MIN/wB97XD/Def2SVP

0 1
Cu                 0.00000000    0.00000000   -2.20154589
Cl                -0.00033285   -0.00010521   -4.30644228
P                  0.00000000    0.00000000    0.00000000
Cl                -0.61202265    1.82334979    0.68001749
Cl                -1.27093700   -1.44213982    0.68304603
Cl                 1.88651438   -0.38003461    0.67693218
Options
GauProc=16
GauMem=800
EigenCheck
MinFreqValue=50.0
@@SubAddExPot@@
MaxOptITR=999

