# MIN/wB97XD/Def2SVP

0 1
P                  0.00000000    0.00000000    0.00000000
Cl                 1.69268034   -0.91324119    0.68001749
Cl                -0.05729641    1.92139669    0.68304603
Cl                -1.63717651   -1.01144248    0.67693218
Options
GauProc=16
GauMem=800
EigenCheck
MinFreqValue=50.0
@@SubAddExPot@@
MaxOptITR=999

