# MIN/wB97XD/Def2SVP

0 1
Ir                -0.00000000   -0.00000000   -2.28277600
C                  1.63351258   -1.02219497   -2.40972197
C                 -1.84792420    0.54897561   -2.38989987
O                  2.53619915   -1.70344338   -2.53248432
O                 -2.95736423    0.77461416   -2.50218607
Cl                 0.08581857    0.20686153   -4.65636381
P                  0.00000000    0.00000000    0.00000000
Cl                 1.90838617    0.23924554    0.68001749
Cl                -1.16223405    1.53109768    0.68304603
Cl                -0.74570315   -1.77406021    0.67693218
Options
GauProc=16
GauMem=800
EigenCheck
MinFreqValue=50.0
@@SubAddExPot@@
MaxOptITR=999

