# MIN/wB97XD/Def2SVP

0 1
Rh                 0.00000000   -0.00000000   -2.39496543
C                  1.51578521   -1.04999818   -2.49682539
C                 -0.17685472    0.11264263   -4.29337964
O                  2.46328119   -1.68321707   -2.59646120
O                 -0.31816653    0.20147617   -5.41644783
Cl                -1.89803956    1.41897497   -2.29412693
P                  0.00000000    0.00000000    0.00000000
Cl                 1.52449169    1.17264713    0.68001749
Cl                -1.77751162    0.73177903    0.68304603
Cl                 0.25528924   -1.90740405    0.67693218
Options
GauProc=16
GauMem=800
EigenCheck
MinFreqValue=50.0
@@SubAddExPot@@
MaxOptITR=999

